c CNF
c from Selman's wff generator
p cnf 10  45
-5 8 -6 0
-8 -10 1 0
6 9 10 0
-4 -1 -7 0
4 2 -6 0
5 -2 1 0
-7 8 3 0
-10 -8 9 0
-10 -2 5 0
5 3 -6 0
-7 -8 1 0
10 4 -8 0
3 -1 -8 0
-6 10 7 0
5 -10 -7 0
1 7 8 0
-2 4 -9 0
-9 -8 -10 0
-2 4 9 0
-3 -9 10 0
-2 1 -5 0
-9 -8 -5 0
10 -6 -4 0
2 5 -1 0
2 -9 10 0
-9 -8 2 0
6 4 5 0
-2 -7 -4 0
-8 7 -3 0
-8 -2 4 0
9 4 10 0
1 -8 -9 0
-6 -2 -5 0
8 4 -7 0
7 -10 9 0
3 -6 -8 0
-8 6 -1 0
-9 5 3 0
-10 -1 9 0
3 -2 -10 0
-2 3 6 0
-1 -9 -4 0
4 2 -10 0
-3 2 9 0
-10 3 -6 0
